8483
11, 12, 51, 33, 43, 4, 25, 46, 37, 48, 24, 5, 6, 15, 38, 40, 39, 36, 35, 34, 44, 16, 50, 20, 23, 31, 18, 17, 3, 41, 9, 10, 8, 19, 45, 32, 49, 1, 22, 21, 42, 7, 2, 30, 29, 47, 26, 28, 27, 14, 13, 52
